(set-logic HORN)
(declare-fun state (Int Int Int (Array Int Int) Int (Array Int Int) Int Int (Array Int Int) Int (Array Int Int) Int Bool Bool Bool Int Int Int Int Int Int) Bool)
(assert (forall ((|main@%tmp8.i_0_3| Int) (|.y.17| Int) (|.y.18| Int) (|main@%shadow.mem1.0_0_3| (Array Int Int)) (|main@%tmp10.i_0_3| Int) (|main@%shadow.mem.0_0_3| (Array Int Int)) (|main@%i.1.i_0_1| Int) (|main@%rv.0.i_0_1| Int) (|.y.19| (Array Int Int)) (|main@%tmp12.i_0_3| Int) (|main@%shadow.mem2.0_0_1| (Array Int Int)) (|main@%tmp2.i_0_3| Int) (|.loc.20| Bool) (|.loc.21| Bool) (|.loc.22| Bool) (|main@%tmp65.i_0| Int) (|main@%tmp61.i_0| Int) (|main@%tmp48.i_0| Int) (|main@%tmp21.i_0| Int) (|main@%tmp61.i_0_0| Int) (|main@%tmp65.i_0_0| Int) (|.x.33| (Array Int Int)) (|main@%x.0.i_1| Int) (|.x.38| Int) (|.x.37| (Array Int Int)) (|.x.36| Int) (|.x.35| (Array Int Int)) (|.x.34| Int) (|.loc.27| Bool) (|.loc.28| Bool) (|.loc.29| Bool) (|.y.25| Int) (|.x.32| Int) (|.y.26| (Array Int Int)) (|.y.23| Int) (|.y.24| Int) (|.xtv.1| Int) (|.xtv.2| Int) (|.xtv.3| Int) (|.xtv.4| Int) (|.xpv.1| Int) (|.xpv.2| Int)) (=> (and (and (not .loc.20) (not .loc.21)) (not .loc.22)) (state |main@%tmp8.i_0_3| |.y.17| |.y.18| |main@%shadow.mem1.0_0_3| |main@%tmp10.i_0_3| |main@%shadow.mem.0_0_3| |main@%i.1.i_0_1| |main@%rv.0.i_0_1| |.y.19| |main@%tmp12.i_0_3| |main@%shadow.mem2.0_0_1| |main@%tmp2.i_0_3| |.loc.20| |.loc.21| |.loc.22| |main@%tmp65.i_0| |main@%tmp61.i_0| |main@%tmp48.i_0| |main@%tmp21.i_0| |main@%tmp61.i_0_0| |main@%tmp65.i_0_0|))))
(assert (forall ((|main@%tmp8.i_0_3| Int) (|.y.17| Int) (|.y.18| Int) (|main@%shadow.mem1.0_0_3| (Array Int Int)) (|main@%tmp10.i_0_3| Int) (|main@%shadow.mem.0_0_3| (Array Int Int)) (|main@%i.1.i_0_1| Int) (|main@%rv.0.i_0_1| Int) (|.y.19| (Array Int Int)) (|main@%tmp12.i_0_3| Int) (|main@%shadow.mem2.0_0_1| (Array Int Int)) (|main@%tmp2.i_0_3| Int) (|.loc.20| Bool) (|.loc.21| Bool) (|.loc.22| Bool) (|main@%tmp65.i_0| Int) (|main@%tmp61.i_0| Int) (|main@%tmp48.i_0| Int) (|main@%tmp21.i_0| Int) (|main@%tmp61.i_0_0| Int) (|main@%tmp65.i_0_0| Int) (|.x.33| (Array Int Int)) (|main@%x.0.i_1| Int) (|.x.38| Int) (|.x.37| (Array Int Int)) (|.x.36| Int) (|.x.35| (Array Int Int)) (|.x.34| Int) (|.loc.27| Bool) (|.loc.28| Bool) (|.loc.29| Bool) (|.y.25| Int) (|.x.32| Int) (|.y.26| (Array Int Int)) (|.y.23| Int) (|.y.24| Int) (|.xtv.1| Int) (|.xtv.2| Int) (|.xtv.3| Int) (|.xtv.4| Int) (|.xpv.1| Int) (|.xpv.2| Int)) (=> (and (state |main@%tmp8.i_0_3| |.y.17| |.y.18| |main@%shadow.mem1.0_0_3| |main@%tmp10.i_0_3| |main@%shadow.mem.0_0_3| |main@%i.1.i_0_1| |main@%rv.0.i_0_1| |.y.19| |main@%tmp12.i_0_3| |main@%shadow.mem2.0_0_1| |main@%tmp2.i_0_3| |.loc.20| |.loc.21| |.loc.22| |main@%tmp65.i_0| |main@%tmp61.i_0| |main@%tmp48.i_0| |main@%tmp21.i_0| |main@%tmp61.i_0_0| |main@%tmp65.i_0_0|) (let ((.def_31 (not .loc.20))) (let ((.def_32 (not .loc.21))) (let ((.def_34 (not .loc.22))) (let ((.def_39 (= main@%rv.0.i_0_1 0))) (let ((.def_50 (= main@%shadow.mem.0_0_3 .x.35))) (let ((.def_52 (= main@%tmp10.i_0_3 .x.34))) (let ((.def_53 (and .def_50 .def_52))) (let ((.def_64 (not .loc.29))) (let ((.def_71 (not .loc.28))) (let ((.def_73 (not .loc.27))) (let ((.def_75 (= .x.36 0))) (let ((.def_81 (<= main@%tmp2.i_0_3 main@%i.1.i_0_1))) (let ((.def_84 (<= main@%tmp12.i_0_3 main@%tmp2.i_0_3))) (let ((.def_99 (and .loc.20 .def_53))) (let ((.def_104 (select main@%shadow.mem1.0_0_3 main@%tmp61.i_0))) (let ((.def_105 (= (select main@%shadow.mem.0_0_3 main@%tmp65.i_0) .def_104))) (let ((.def_108 (<= main@%tmp10.i_0_3 0))) (let ((.def_109 (not .def_108))) (let ((.def_113 (or .def_108 (not (<= main@%tmp65.i_0 0))))) (let ((.def_116 (<= main@%tmp8.i_0_3 0))) (let ((.def_117 (not .def_116))) (let ((.def_121 (or .def_116 (not (<= main@%tmp61.i_0 0))))) (let ((.def_125 (= main@%i.1.i_0_1 .x.36))) (let ((.def_127 (= .y.19 .x.37))) (let ((.def_129 (= main@%tmp12.i_0_3 .x.38))) (let ((.def_161 (= (+ main@%i.1.i_0_1 (* (- 1) .x.36)) (- 1)))) (let ((.def_165 (= (+ main@%tmp10.i_0_3 (+ main@%i.1.i_0_1 (* (- 1) main@%tmp65.i_0))) 0))) (let ((.def_169 (= (+ main@%tmp8.i_0_3 (+ main@%i.1.i_0_1 (* (- 1) main@%tmp61.i_0))) 0))) (let ((.def_172 (= main@%rv.0.i_0_1 .y.25))) (let ((.def_176 (= main@%tmp8.i_0_3 .x.32))) (let ((.def_192 (<= main@%rv.0.i_0_1 .y.18))) (let ((.def_203 (<= main@%tmp12.i_0_3 0))) (let ((.def_205 (not (<= main@%tmp48.i_0 0)))) (let ((.def_266 (<= .y.17 0))) (or (or (and (= main@%shadow.mem1.0_0_3 .x.33) (or (or (and (or (and (or (or (and (or (and (and (and (and (not .def_39) (and (= main@%x.0.i_1 0) (and (= main@%tmp2.i_0_3 .x.38) (and (= main@%shadow.mem2.0_0_1 .x.37) (and (= main@%tmp12.i_0_3 .x.36) .def_53))))) .loc.27) .loc.28) .def_64) (and (= main@%tmp2.i_0_3 .y.25) (and (= main@%shadow.mem2.0_0_1 .x.35) (and (= main@%tmp12.i_0_3 .x.34) (and (and (and (and .def_39 .loc.29) .def_71) .def_73) .def_75))))) (and .def_31 .def_81)) (and (and (and (and (not .def_84) (and (= (+ main@%tmp8.i_0_3 (+ main@%tmp2.i_0_3 (* (- 1) main@%tmp61.i_0))) 0) (and (and (and (= (+ main@%tmp10.i_0_3 (+ main@%tmp2.i_0_3 (* (- 1) main@%tmp65.i_0))) 0) (and (and (and (= (+ main@%tmp2.i_0_3 (* (- 1) main@%x.0.i_1)) (- 1)) (and (and .def_64 (and .loc.28 (and .loc.27 .def_99))) .def_105)) .def_109) .def_113)) .def_117) .def_121))) .def_125) .def_127) .def_129)) (and (= main@%tmp12.i_0_3 .y.25) (and (= .y.19 .x.35) (and (= main@%i.1.i_0_1 .x.34) (and .def_84 (and .def_75 (and .def_73 (and .def_71 (and .loc.20 .loc.29))))))))) (and .loc.21 .def_34)) (and (and (not (<= main@%rv.0.i_0_1 main@%i.1.i_0_1)) (and (and (and (and .def_32 (and .def_121 (and .def_117 (and .def_113 (and .def_109 (and .def_105 (and .def_73 (and .def_71 (and .loc.29 (and .def_31 (and .loc.22 .def_53))))))))))) .def_161) .def_165) .def_169)) .def_172)) .def_176) (and (= main@%rv.0.i_0_1 main@%x.0.i_1) (and (= main@%i.1.i_0_1 .x.38) (and (= .y.17 .x.32) (and (and (= .y.25 1) (and (= .y.19 .y.26) (and .def_32 (and .def_75 (and .def_73 (and .def_64 (and .loc.28 (and .def_34 .def_99)))))))) .def_192))))) (and (= main@%tmp2.i_0_3 main@%x.0.i_1) (and (= (+ main@%i.1.i_0_1 (+ main@%tmp12.i_0_3 (* (- 1) main@%tmp48.i_0))) 0) (and (or .def_203 .def_205) (and (not .def_203) (and (= .y.25 (ite .def_105 main@%rv.0.i_0_1 0)) (and (= .y.26 (store main@%shadow.mem2.0_0_1 main@%tmp48.i_0 .def_104)) (and .def_169 (and .def_165 (and .def_161 (and .def_129 (and .def_121 (and .def_117 (and .def_113 (and .def_109 (and .def_73 (and .def_64 (and .loc.28 (and .def_34 (and .def_31 (and .loc.21 (and .def_50 (and .def_52 (and .def_176 (not .def_81)))))))))))))))))))))))))) (and (not (<= .y.25 0)) (and (not (<= .y.23 0)) (and (not (<= .x.34 0)) (and (not (<= .x.36 0)) (and (= .y.24 0) (and .def_32 (and .def_71 (and .def_64 (and .loc.27 (and .def_34 (and .def_31 .def_176)))))))))))) (and (= .y.17 .y.23) (and (not .def_192) (and (= (+ .y.17 (+ .y.18 (* (- 1) main@%tmp48.i_0))) 0) (and (or .def_205 .def_266) (and (not .def_266) (and (= (+ .y.18 (+ main@%tmp10.i_0_3 (* (- 1) main@%tmp65.i_0))) 0) (and (= .x.35 (store main@%shadow.mem.0_0_3 main@%tmp65.i_0 main@%tmp21.i_0)) (and (= .x.33 (store main@%shadow.mem1.0_0_3 main@%tmp48.i_0 main@%tmp61.i_0)) (and (= (+ .y.18 (* (- 1) .y.24)) (- 1)) (and .def_172 (and .def_32 (and .def_127 (and .def_125 (and .def_113 (and .def_109 (and .def_71 (and .def_64 (and .loc.27 (and .def_34 (and .loc.20 (and .def_52 .def_176))))))))))))))))))))))))))))))))))))))))))))))))))))))))) (state |.x.32| |.y.23| |.y.24| |.x.33| |.x.34| |.x.35| |.x.36| |.y.25| |.x.37| |.x.38| |.y.26| |main@%x.0.i_1| |.loc.27| |.loc.28| |.loc.29| |.xtv.1| |.xtv.2| |.xtv.3| |.xtv.4| |.xpv.1| |.xpv.2|))))
(assert (forall ((|main@%tmp8.i_0_3| Int) (|.y.17| Int) (|.y.18| Int) (|main@%shadow.mem1.0_0_3| (Array Int Int)) (|main@%tmp10.i_0_3| Int) (|main@%shadow.mem.0_0_3| (Array Int Int)) (|main@%i.1.i_0_1| Int) (|main@%rv.0.i_0_1| Int) (|.y.19| (Array Int Int)) (|main@%tmp12.i_0_3| Int) (|main@%shadow.mem2.0_0_1| (Array Int Int)) (|main@%tmp2.i_0_3| Int) (|.loc.20| Bool) (|.loc.21| Bool) (|.loc.22| Bool) (|main@%tmp65.i_0| Int) (|main@%tmp61.i_0| Int) (|main@%tmp48.i_0| Int) (|main@%tmp21.i_0| Int) (|main@%tmp61.i_0_0| Int) (|main@%tmp65.i_0_0| Int) (|.x.33| (Array Int Int)) (|main@%x.0.i_1| Int) (|.x.38| Int) (|.x.37| (Array Int Int)) (|.x.36| Int) (|.x.35| (Array Int Int)) (|.x.34| Int) (|.loc.27| Bool) (|.loc.28| Bool) (|.loc.29| Bool) (|.y.25| Int) (|.x.32| Int) (|.y.26| (Array Int Int)) (|.y.23| Int) (|.y.24| Int) (|.xtv.1| Int) (|.xtv.2| Int) (|.xtv.3| Int) (|.xtv.4| Int) (|.xpv.1| Int) (|.xpv.2| Int)) (=> (state |main@%tmp8.i_0_3| |.y.17| |.y.18| |main@%shadow.mem1.0_0_3| |main@%tmp10.i_0_3| |main@%shadow.mem.0_0_3| |main@%i.1.i_0_1| |main@%rv.0.i_0_1| |.y.19| |main@%tmp12.i_0_3| |main@%shadow.mem2.0_0_1| |main@%tmp2.i_0_3| |.loc.20| |.loc.21| |.loc.22| |main@%tmp65.i_0| |main@%tmp61.i_0| |main@%tmp48.i_0| |main@%tmp21.i_0| |main@%tmp61.i_0_0| |main@%tmp65.i_0_0|) (let ((.def_108 (<= main@%tmp10.i_0_3 0))) (let ((.def_116 (<= main@%tmp8.i_0_3 0))) (not (and (or (and (not (<= main@%rv.0.i_0_1 main@%i.1.i_0_1)) (and (and (and (not .loc.20) (and .loc.22 (not .loc.21))) (= (+ main@%tmp10.i_0_3 (+ main@%i.1.i_0_1 (* (- 1) main@%tmp65.i_0_0))) 0)) (= (+ main@%tmp8.i_0_3 (+ main@%i.1.i_0_1 (* (- 1) main@%tmp61.i_0_0))) 0))) (and (not .loc.22) (and .loc.21 (and .loc.20 (and (and (not (<= main@%tmp12.i_0_3 main@%tmp2.i_0_3)) (= (+ main@%tmp8.i_0_3 (+ main@%tmp2.i_0_3 (* (- 1) main@%tmp61.i_0_0))) 0)) (= (+ main@%tmp10.i_0_3 (+ main@%tmp2.i_0_3 (* (- 1) main@%tmp65.i_0_0))) 0)))))) (and (and (not .def_108) (and (and (not .def_116) (or .def_116 (not (<= main@%tmp61.i_0_0 0)))) (or .def_108 (not (<= main@%tmp65.i_0_0 0))))) (not (= (select main@%shadow.mem.0_0_3 main@%tmp65.i_0_0) (select main@%shadow.mem1.0_0_3 main@%tmp61.i_0_0)))))))))))
(check-sat)
